LibMLKEM/why3-cvc5/mlkem.adb_1796_7_precondition_1.smt2
;; produced by cvc5.drv ;;
(set-logic ALL)
(set-info :smt-lib-version 2.6)
;;; generated by SMT-LIB2 driver
;;; SMT-LIB2 driver: bit-vectors, common part
;;; SMT-LIB2: integer arithmetic
;; "pow2"
(declare-fun pow2 (Int) Int)

(declare-const two_power_size_minus_one Int)

;; "two_power_size_minus_one_val"
(assert (= two_power_size_minus_one (pow2 (- 8 1))))

;; "min"
(define-fun min ((x Int) (y Int)) Int
  (ite (<= x y) x y))

;; "max"
(define-fun max ((x Int) (y Int)) Int
  (ite (<= x y) y x))

;; "Min_r"
(assert (forall ((x Int) (y Int)) (=> (<= y x) (= (min x y) y))))

;; "Max_l"
(assert (forall ((x Int) (y Int)) (=> (<= y x) (= (max x y) x))))

;; "Min_comm"
(assert (forall ((x Int) (y Int)) (= (min x y) (min y x))))

;; "Max_comm"
(assert (forall ((x Int) (y Int)) (= (max x y) (max y x))))

;; "Min_assoc"
(assert
  (forall ((x Int) (y Int) (z Int)) (= (min (min x y) z) (min x (min y z)))))

;; "Max_assoc"
(assert
  (forall ((x Int) (y Int) (z Int)) (= (max (max x y) z) (max x (max y z)))))

(declare-const two_power_size_minus_one1 Int)

;; "two_power_size_minus_one_val"
(assert (= two_power_size_minus_one1 (pow2 (- 16 1))))

(declare-sort t 0)

;; "in_range"
(define-fun in_range ((x (_ BitVec 16))) Bool
  (and (bvule #x0000 x) (bvule x #x0D00)))

;; "to_rep"
(declare-fun to_rep (t) (_ BitVec 16))

;; "of_rep"
(declare-fun of_rep ((_ BitVec 16)) t)

;; "inversion_axiom"
(assert
  (forall ((x t)) (! (= (of_rep (to_rep x)) x) :pattern ((to_rep x)) )))

;; "range_axiom"
(assert (forall ((x t)) (! (in_range (to_rep x)) :pattern ((to_rep x)) )))

;; "coerce_axiom"
(assert
  (forall ((x (_ BitVec 16)))
    (! (let ((y (bvurem x #x0D01)))
         (=> (in_range y) (= (to_rep (of_rep x)) y))) :pattern ((to_rep
                                                                  (of_rep x))) )))

(declare-sort map1 0)

;; "has_bounds"
(declare-fun has_bounds (map1
  Int
  Int) Bool)

(declare-sort map2 0)

;; "has_bounds"
(declare-fun has_bounds1 (map2
  Int
  Int) Bool)

;; "get"
(declare-fun get (map2
  Int) map1)

;; "dynamic_invariant"
(define-fun dynamic_invariant ((temp___expr_1075 map2) (temp___is_init_1071 Bool) (temp___skip_constant_1072 Bool) (temp___do_toplevel_1073 Bool) (temp___do_typ_inv_1074 Bool)) Bool
  (and
    (has_bounds1 temp___expr_1075 0 2)
    (forall ((temp___1076 Int))
      (=>
        (and (<= 0 temp___1076) (<= temp___1076 2))
        (has_bounds (get temp___expr_1075 temp___1076) 0 255)))))

(declare-sort byte 0)

;; "to_rep"
(declare-fun to_rep1 (byte) (_ BitVec 8))

;; "of_rep"
(declare-fun of_rep1 ((_ BitVec 8)) byte)

;; "inversion_axiom"
(assert
  (forall ((x byte)) (! (= (of_rep1 (to_rep1 x)) x) :pattern ((to_rep1 x)) )))

;; "range_axiom"
(assert true)

;; "coerce_axiom"
(assert
  (forall ((x (_ BitVec 8)))
    (! (= (to_rep1 (of_rep1 x)) x) :pattern ((to_rep1 (of_rep1 x))) )))

(declare-sort map3 0)

;; "has_bounds"
(declare-fun has_bounds2 (map3
  Int
  Int) Bool)

;; "get"
(declare-fun get1 (map3
  Int) byte)

;; "slide"
(declare-fun slide (map3
  Int
  Int) map3)

;; "slide_eq"
(assert
  (forall ((a map3) (first Int))
    (! (= (slide a first first) a) :pattern ((slide a first first)) )))

;; "slide_def"
(assert
  (forall ((a map3) (old_first Int) (new_first Int))
    (! (and
         (forall ((i Int))
           (! (= (get1 (slide a old_first new_first) i) (get1
                                                          a
                                                          (- i (- new_first old_first)))) :pattern (
           (get1
             (slide a old_first new_first)
             i)) ))
         (forall ((new_last Int))
           (! (=>
                (has_bounds2
                  a
                  old_first
                  (- new_last (- new_first old_first)))
                (has_bounds2
                  (slide a old_first new_first)
                  new_first
                  new_last)) :pattern ((has_bounds2
                                         (slide a old_first new_first)
                                         new_first
                                         new_last)) ))) :pattern ((slide
                                                                    a
                                                                    old_first
                                                                    new_first)) )))

;; "slice"
(declare-fun slice (map3
  Int
  Int) map3)

;; "slice_eq"
(assert
  (forall ((a map3) (f Int) (l Int))
    (! (=> (has_bounds2 a f l) (= (slice a f l) a)) :pattern ((slice a f l)
    (has_bounds2 a f l)) )))

;; "slice_slice"
(assert
  (forall ((a map3) (f1 Int) (l1 Int) (f2 Int) (l2 Int))
    (! (=>
         (and (<= f1 f2) (<= l2 l1))
         (= (slice (slice a f1 l1) f2 l2) (slice a f2 l2))) :pattern (
    (slice
      (slice a f1 l1)
      f2
      l2)) )))

;; "slice_def"
(assert
  (forall ((a map3) (f Int) (l Int))
    (! (forall ((i Int))
         (! (=>
              (and (<= f i) (<= i l))
              (= (get1 (slice a f l) i) (get1 a i))) :pattern ((get1
                                                                 (slice
                                                                   a
                                                                   f
                                                                   l)
                                                                 i)) :pattern (
         (get1
           a
           i)) )) :pattern ((slice a f l)) )))

;; "slice_has_bounds"
(assert
  (forall ((a map3) (f Int) (l Int))
    (! (has_bounds2 (slice a f l) f l) :pattern ((has_bounds2
                                                   (slice a f l)
                                                   f
                                                   l)) )))

(declare-sort tinteger_32B 0)

;; "tinteger_32B'int"
(declare-fun tinteger_32Bqtint (tinteger_32B) Int)

;; "tinteger_32B'axiom"
(assert
  (forall ((i tinteger_32B))
    (and
      (<= (- 2147483648) (tinteger_32Bqtint i))
      (<= (tinteger_32Bqtint i) 2147483647))))

;; "in_range"
(define-fun in_range1 ((x Int)) Bool
  (and (<= (- 2147483648) x) (<= x 2147483647)))

;; "to_rep"
(define-fun to_rep2 ((x tinteger_32B)) Int
  (tinteger_32Bqtint x))

;; "of_rep"
(declare-fun of_rep2 (Int) tinteger_32B)

;; "inversion_axiom"
(assert
  (forall ((x tinteger_32B))
    (! (= (of_rep2 (to_rep2 x)) x) :pattern ((to_rep2 x)) )))

;; "range_axiom"
(assert
  (forall ((x tinteger_32B))
    (! (in_range1 (to_rep2 x)) :pattern ((to_rep2 x)) )))

;; "coerce_axiom"
(assert
  (forall ((x Int))
    (! (=> (in_range1 x) (= (to_rep2 (of_rep2 x)) x)) :pattern ((to_rep2
                                                                  (of_rep2 x))) )))

(declare-sort udv 0)

;; "in_range"
(define-fun in_range2 ((x (_ BitVec 8))) Bool
  (and (bvule #x00 x) (bvule x #x0F)))

;; "to_rep"
(declare-fun to_rep3 (udv) (_ BitVec 8))

;; "of_rep"
(declare-fun of_rep3 ((_ BitVec 8)) udv)

;; "inversion_axiom"
(assert
  (forall ((x udv)) (! (= (of_rep3 (to_rep3 x)) x) :pattern ((to_rep3 x)) )))

;; "range_axiom"
(assert
  (forall ((x udv)) (! (in_range2 (to_rep3 x)) :pattern ((to_rep3 x)) )))

;; "coerce_axiom"
(assert
  (forall ((x (_ BitVec 8)))
    (! (let ((y (bvurem x #x10)))
         (=> (in_range2 y) (= (to_rep3 (of_rep3 x)) y))) :pattern ((to_rep3
                                                                    (of_rep3
                                                                    x))) )))

(declare-sort udu 0)

;; "in_range"
(define-fun in_range3 ((x (_ BitVec 16))) Bool
  (and (bvule #x0000 x) (bvule x #x03FF)))

;; "to_rep"
(declare-fun to_rep4 (udu) (_ BitVec 16))

;; "of_rep"
(declare-fun of_rep4 ((_ BitVec 16)) udu)

;; "inversion_axiom"
(assert
  (forall ((x udu)) (! (= (of_rep4 (to_rep4 x)) x) :pattern ((to_rep4 x)) )))

;; "range_axiom"
(assert
  (forall ((x udu)) (! (in_range3 (to_rep4 x)) :pattern ((to_rep4 x)) )))

;; "coerce_axiom"
(assert
  (forall ((x (_ BitVec 16)))
    (! (let ((y (bvurem x #x0400)))
         (=> (in_range3 y) (= (to_rep4 (of_rep4 x)) y))) :pattern ((to_rep4
                                                                    (of_rep4
                                                                    x))) )))

(declare-sort map4 0)

;; "has_bounds"
(declare-fun has_bounds3 (map4
  Int
  Int) Bool)

;; "get"
(declare-fun get2 (map4
  Int) map1)

;; "dynamic_invariant"
(define-fun dynamic_invariant1 ((temp___expr_1123 map4) (temp___is_init_1119 Bool) (temp___skip_constant_1120 Bool) (temp___do_toplevel_1121 Bool) (temp___do_typ_inv_1122 Bool)) Bool
  (and
    (has_bounds3 temp___expr_1123 0 2)
    (forall ((temp___1124 Int))
      (=>
        (and (<= 0 temp___1124) (<= temp___1124 2))
        (has_bounds (get2 temp___expr_1123 temp___1124) 0 255)))))

;; "bytedecode12"
(declare-fun bytedecode12 (map3) map4)

;; "bytedecode12__function_guard"
(declare-fun bytedecode12__function_guard (map4
  map3) Bool)

(declare-sort map5 0)

;; "has_bounds"
(declare-fun has_bounds4 (map5
  Int
  Int) Bool)

;; "get"
(declare-fun get3 (map5
  Int) map4)

;; "dynamic_invariant"
(define-fun dynamic_invariant2 ((temp___expr_1150 map5) (temp___is_init_1146 Bool) (temp___skip_constant_1147 Bool) (temp___do_toplevel_1148 Bool) (temp___do_typ_inv_1149 Bool)) Bool
  (and
    (has_bounds4 temp___expr_1150 0 2)
    (forall ((temp___1151 Int))
      (=>
        (and (<= 0 temp___1151) (<= temp___1151 2))
        (and
          (has_bounds3 (get3 temp___expr_1150 temp___1151) 0 2)
          (forall ((temp___1152 Int))
            (=>
              (and (<= 0 temp___1152) (<= temp___1152 2))
              (has_bounds
                (get2 (get3 temp___expr_1150 temp___1151) temp___1152)
                0
                255))))))))

(declare-const ek_pke map3)

(declare-const m map3)

(declare-const random_r map3)

;; Goal "def'vc"
;; File "mlkem.adb", line 1778, characters 0-0
(assert
  (not true))

(check-sat)
